42.82 22.52
18.67 27.34
64.94 87.82
48.33 7.28
15.32 14.82
35.09 6.55
70.43 82.48
2.88 9.30
37.25 48.18
7.21 41.91
33.90 12.77
64.88 3.08
89.50 84.31
3.19 22.82
0.09 8.97
23.26 99.60
53.15 46.44
13.78 79.85
81.03 67.84
35.69 91.64
97.98 46.75
77.56 18.26
63.25 27.02
97.80 48.36
66.28 14.58
